20
12
2 6 7
12 18 0 1
9 0 6 14 12 5 2 16 19 3 7 13 11
15 18 13 4 1 11 5 2 0 14 19 9 7 10 16
8 12 7 19 1 14 15 16 3 17 13 5 0
5 12 17 10 0 16 15 2 7
11 5 8 6 19 12 15 1 18 9 3 7 14 4 13 17
18 13 15 7 12 8 16 17 5 14 3 6 4 11 1 2 10 9 19
8 17 12 1 15 7 11 3 9
18 16 10 1
19 16 7 2
7 17 15 10 8 9 14 5 12 4 16 19 11 13
